DIMACS_lns/graph-1000-699.col
p edge 1000 1765
e 1 770
e 1 734
e 1 821
e 1 419
e 2 496
e 2 907
e 2 390
e 2 910
e 2 264
e 2 837
e 2 589
e 3 366
e 3 644
e 3 506
e 3 773
e 3 602
e 4 376
e 4 56
e 4 824
e 4 345
e 4 212
e 5 210
e 5 474
e 5 117
e 5 936
e 5 620
e 5 306
e 6 594
e 6 881
e 6 244
e 6 97
e 6 305
e 7 48
e 7 157
e 7 403
e 7 242
e 7 726
e 7 355
e 7 654
e 7 535
e 8 67
e 8 866
e 8 304
e 8 55
e 8 186
e 8 842
e 9 858
e 9 178
e 9 280
e 9 413
e 9 184
e 9 689
e 10 296
e 10 492
e 10 149
e 10 917
e 10 434
e 11 837
e 11 354
e 11 469
e 11 908
e 11 330
e 11 613
e 12 578
e 12 575
e 12 102
e 13 519
e 13 344
e 13 721
e 14 231
e 14 837
e 14 228
e 15 175
e 15 996
e 15 463
e 15 931
e 15 370
e 15 238
e 17 516
e 17 119
e 17 823
e 17 195
e 17 355
e 17 328
e 19 378
e 19 492
e 19 664
e 21 416
e 21 248
e 21 483
e 22 929
e 22 443
e 22 317
e 22 876
e 22 359
e 23 812
e 23 128
e 23 605
e 23 691
e 23 300
e 23 439
e 25 325
e 25 857
e 25 672
e 25 713
e 25 558
e 26 825
e 26 582
e 26 352
e 27 903
e 27 980
e 27 665
e 27 502
e 27 357
e 28 673
e 28 505
e 28 308
e 28 294
e 28 927
e 28 863
e 28 323
e 28 383
e 28 757
e 29 748
e 29 802
e 29 873
e 30 448
e 30 116
e 30 339
e 30 89
e 31 35
e 31 109
e 31 254
e 31 203
e 31 611
e 31 914
e 32 966
e 32 671
e 32 772
e 32 320
e 32 430
e 32 275
e 32 339
e 32 308
e 32 408
e 34 56
e 34 688
e 34 175
e 34 252
e 34 261
e 35 429
e 35 340
e 35 472
e 35 594
e 36 210
e 36 803
e 36 215
e 36 585
e 36 959
e 38 481
e 38 321
e 38 839
e 39 270
e 39 404
e 39 930
e 39 741
e 40 704
e 40 556
e 40 274
e 42 712
e 42 315
e 42 996
e 43 993
e 43 157
e 43 792
e 43 790
e 45 196
e 45 253
e 45 326
e 45 564
e 46 792
e 46 403
e 46 350
e 46 658
e 47 572
e 47 150
e 47 278
e 47 861
e 47 64
e 48 167
e 48 658
e 48 238
e 48 454
e 49 273
e 49 343
e 49 573
e 49 533
e 50 813
e 50 891
e 50 870
e 50 975
e 50 447
e 50 537
e 51 609
e 51 360
e 51 858
e 51 674
e 51 994
e 53 110
e 53 412
e 53 118
e 53 364
e 53 343
e 54 412
e 54 690
e 54 471
e 54 386
e 55 476
e 55 169
e 55 964
e 56 528
e 56 927
e 56 418
e 56 602
e 56 752
e 56 169
e 56 475
e 57 474
e 57 200
e 57 861
e 57 346
e 57 895
e 57 792
e 57 936
e 57 705
e 58 530
e 58 544
e 58 185
e 58 716
e 59 668
e 59 996
e 59 238
e 59 156
e 59 105
e 59 443
e 59 141
e 60 308
e 60 617
e 60 536
e 60 161
e 61 662
e 61 931
e 61 256
e 61 364
e 61 845
e 61 870
e 62 503
e 62 892
e 62 816
e 62 513
e 64 269
e 64 311
e 64 634
e 64 722
e 65 999
e 65 118
e 65 545
e 65 783
e 66 564
e 66 858
e 66 844
e 67 972
e 67 817
e 67 373
e 67 589
e 67 892
e 68 606
e 68 575
e 68 660
e 68 455
e 69 979
e 69 984
e 69 617
e 70 513
e 70 462
e 70 979
e 70 155
e 72 330
e 72 288
e 72 457
e 73 519
e 73 419
e 73 422
e 75 500
e 75 694
e 75 373
e 75 399
e 75 197
e 76 192
e 76 850
e 76 597
e 76 959
e 76 786
e 77 277
e 77 175
e 77 641
e 77 905
e 77 703
e 78 501
e 78 373
e 78 340
e 78 713
e 78 578
e 79 654
e 79 272
e 79 174
e 79 462
e 83 107
e 83 402
e 83 814
e 83 366
e 83 693
e 84 187
e 84 930
e 84 294
e 84 128
e 85 738
e 85 414
e 85 874
e 85 164
e 85 291
e 85 805
e 85 579
e 86 423
e 86 451
e 86 737
e 86 790
e 87 759
e 87 602
e 87 512
e 87 137
e 89 345
e 89 804
e 90 280
e 90 769
e 90 717
e 90 790
e 90 735
e 91 408
e 91 296
e 91 341
e 92 987
e 92 385
e 92 721
e 93 113
e 93 293
e 93 265
e 93 332
e 93 228
e 94 949
e 94 890
e 94 624
e 94 384
e 94 330
e 95 421
e 95 120
e 95 814
e 95 951
e 95 902
e 97 607
e 97 486
e 97 99
e 97 127
e 97 931
e 99 218
e 99 614
e 99 887
e 99 260
e 101 422
e 101 817
e 101 824
e 101 325
e 101 622
e 101 710
e 101 383
e 102 719
e 102 650
e 102 124
e 102 657
e 105 434
e 105 604
e 105 800
e 105 301
e 105 758
e 105 660
e 105 993
e 106 359
e 106 558
e 106 802
e 106 231
e 107 655
e 107 404
e 108 688
e 108 270
e 108 212
e 109 876
e 109 132
e 109 965
e 109 634
e 110 972
e 110 190
e 110 469
e 110 676
e 110 906
e 110 757
e 110 870
e 110 562
e 110 117
e 112 483
e 112 814
e 112 444
e 112 579
e 112 578
e 112 525
e 113 571
e 113 326
e 113 323
e 114 594
e 114 792
e 114 593
e 114 587
e 114 190
e 114 605
e 114 263
e 116 854
e 116 880
e 116 482
e 116 626
e 116 665
e 117 532
e 117 982
e 118 840
e 118 664
e 118 858
e 118 590
e 118 261
e 119 502
e 119 369
e 119 737
e 119 397
e 120 695
e 120 212
e 120 192
e 120 728
e 120 157
e 120 858
e 122 283
e 122 149
e 122 591
e 122 936
e 123 638
e 123 704
e 123 575
e 123 998
e 123 890
e 123 173
e 124 903
e 124 679
e 124 474
e 124 302
e 124 908
e 125 427
e 125 547
e 125 785
e 125 274
e 127 661
e 127 992
e 127 852
e 128 912
e 128 859
e 130 464
e 130 989
e 130 991
e 130 226
e 132 323
e 132 415
e 132 492
e 132 292
e 132 221
e 133 320
e 133 253
e 133 576
e 133 463
e 133 236
e 136 412
e 136 216
e 136 723
e 137 409
e 137 980
e 137 138
e 137 848
e 138 307
e 138 433
e 138 1000
e 140 525
e 140 192
e 140 858
e 140 864
e 140 445
e 140 773
e 141 912
e 141 930
e 142 584
e 142 988
e 142 585
e 142 740
e 144 968
e 144 699
e 144 238
e 144 615
e 144 463
e 144 323
e 144 925
e 145 655
e 145 602
e 145 292
e 145 270
e 145 732
e 145 363
e 147 825
e 147 253
e 147 346
e 147 402
e 147 666
e 147 292
e 147 261
e 147 355
e 148 479
e 148 901
e 148 547
e 149 926
e 149 871
e 149 891
e 149 950
e 149 473
e 149 559
e 149 804
e 149 208
e 150 766
e 150 635
e 150 839
e 152 753
e 152 906
e 152 455
e 152 605
e 152 179
e 152 407
e 152 772
e 154 561
e 154 717
e 154 330
e 155 469
e 155 626
e 155 429
e 155 965
e 155 340
e 156 219
e 156 716
e 156 593
e 158 773
e 158 193
e 158 866
e 158 310
e 159 932
e 159 202
e 159 741
e 159 479
e 160 790
e 160 859
e 160 394
e 160 219
e 160 676
e 160 390
e 160 708
e 161 817
e 161 641
e 162 352
e 162 502
e 162 641
e 162 283
e 162 988
e 164 659
e 164 310
e 167 813
e 167 868
e 167 869
e 168 998
e 168 424
e 168 902
e 168 197
e 169 426
e 169 593
e 170 248
e 170 390
e 170 415
e 170 687
e 170 841
e 170 601
e 170 514
e 170 393
e 172 612
e 172 633
e 172 887
e 173 505
e 173 617
e 174 896
e 174 341
e 174 928
e 174 576
e 175 409
e 175 694
e 175 903
e 175 290
e 175 206
e 175 422
e 177 804
e 177 234
e 177 393
e 177 390
e 178 427
e 178 262
e 178 933
e 178 451
e 178 694
e 178 230
e 178 946
e 178 607
e 178 279
e 178 825
e 179 311
e 179 841
e 181 925
e 181 400
e 181 432
e 181 388
e 181 872
e 181 673
e 184 858
e 184 975
e 184 688
e 185 987
e 185 996
e 185 238
e 185 723
e 185 660
e 185 891
e 185 412
e 186 918
e 186 501
e 186 684
e 187 403
e 187 512
e 187 238
e 187 364
e 187 761
e 188 681
e 188 847
e 188 561
e 189 226
e 189 766
e 189 407
e 189 582
e 190 279
e 190 378
e 190 345
e 190 466
e 192 776
e 192 406
e 192 452
e 192 478
e 192 475
e 193 775
e 193 426
e 195 251
e 195 327
e 195 964
e 195 827
e 195 692
e 196 732
e 196 620
e 196 238
e 196 481
e 197 275
e 197 511
e 197 282
e 197 617
e 197 444
e 198 251
e 198 253
e 198 841
e 200 808
e 200 631
e 200 883
e 202 695
e 202 752
e 202 799
e 202 471
e 202 624
e 203 964
e 203 333
e 204 791
e 204 987
e 204 884
e 204 758
e 206 378
e 206 970
e 206 923
e 206 931
e 207 374
e 207 600
e 207 923
e 207 864
e 208 330
e 208 419
e 208 286
e 209 432
e 209 407
e 209 785
e 209 384
e 210 612
e 210 994
e 210 499
e 210 541
e 210 362
e 212 946
e 212 216
e 212 251
e 212 892
e 212 494
e 212 954
e 214 875
e 214 628
e 214 766
e 215 414
e 215 993
e 215 277
e 216 848
e 216 890
e 216 442
e 216 477
e 216 300
e 216 315
e 218 502
e 218 541
e 218 606
e 218 729
e 219 970
e 219 401
e 221 520
e 221 405
e 221 281
e 221 564
e 221 611
e 221 285
e 221 277
e 221 400
e 222 982
e 222 960
e 222 577
e 222 977
e 226 612
e 226 717
e 226 929
e 226 842
e 227 400
e 227 705
e 227 575
e 227 427
e 228 276
e 228 840
e 228 829
e 230 354
e 230 751
e 230 622
e 230 341
e 230 235
e 231 646
e 231 373
e 231 643
e 234 959
e 234 596
e 234 626
e 234 589
e 234 514
e 235 410
e 235 498
e 235 786
e 236 676
e 236 293
e 236 431
e 236 533
e 236 920
e 238 865
e 238 397
e 238 302
e 238 776
e 241 257
e 241 286
e 241 890
e 241 429
e 241 549
e 242 972
e 242 942
e 242 429
e 242 400
e 244 938
e 244 896
e 244 482
e 244 427
e 244 332
e 244 854
e 248 293
e 248 265
e 248 452
e 248 614
e 248 283
e 248 628
e 250 567
e 250 394
e 250 528
e 251 481
e 251 418
e 251 590
e 252 624
e 252 307
e 252 884
e 253 572
e 253 384
e 253 328
e 254 557
e 254 862
e 254 451
e 256 670
e 256 888
e 256 401
e 257 596
e 257 738
e 257 378
e 257 699
e 257 520
e 259 571
e 259 719
e 259 939
e 259 381
e 259 843
e 259 839
e 260 609
e 260 645
e 260 326
e 260 661
e 260 757
e 261 454
e 261 942
e 261 939
e 261 310
e 262 602
e 262 436
e 262 496
e 263 622
e 263 662
e 263 286
e 264 736
e 264 569
e 265 758
e 265 597
e 265 917
e 265 556
e 267 828
e 267 865
e 267 954
e 267 884
e 267 445
e 269 408
e 269 942
e 269 639
e 269 390
e 269 622
e 270 423
e 272 561
e 272 319
e 272 914
e 272 571
e 272 471
e 272 359
e 273 520
e 273 653
e 273 999
e 273 497
e 273 584
e 274 566
e 274 665
e 274 589
e 274 770
e 275 559
e 275 425
e 275 422
e 276 972
e 276 828
e 276 424
e 276 778
e 276 769
e 276 506
e 277 585
e 277 567
e 278 291
e 278 615
e 279 749
e 280 367
e 280 452
e 280 714
e 280 428
e 281 951
e 281 749
e 281 643
e 282 673
e 282 670
e 283 985
e 283 571
e 283 913
e 283 930
e 284 290
e 284 569
e 284 869
e 284 864
e 284 761
e 285 494
e 285 627
e 286 567
e 288 870
e 288 808
e 288 563
e 288 887
e 289 346
e 289 602
e 289 658
e 289 654
e 289 784
e 290 560
e 290 679
e 291 949
e 291 863
e 291 938
e 292 845
e 292 868
e 292 607
e 292 681
e 292 664
e 292 572
e 293 433
e 293 913
e 293 965
e 294 646
e 294 857
e 296 770
e 296 650
e 297 781
e 297 740
e 297 911
e 300 723
e 301 364
e 301 464
e 302 875
e 302 612
e 303 834
e 303 612
e 303 998
e 303 426
e 303 761
e 303 505
e 303 789
e 304 897
e 304 633
e 305 310
e 305 671
e 305 930
e 306 660
e 306 508
e 306 470
e 307 805
e 308 905
e 308 557
e 308 985
e 308 605
e 308 393
e 308 988
e 308 449
e 309 323
e 309 434
e 309 982
e 309 925
e 310 972
e 310 914
e 311 718
e 311 846
e 311 497
e 311 420
e 315 558
e 315 985
e 315 499
e 317 378
e 317 843
e 317 660
e 317 319
e 317 977
e 317 628
e 319 345
e 319 821
e 319 422
e 320 951
e 320 942
e 320 366
e 320 738
e 321 979
e 321 624
e 321 326
e 321 568
e 322 848
e 322 462
e 322 370
e 322 705
e 323 683
e 323 687
e 325 737
e 325 770
e 326 397
e 326 355
e 326 723
e 326 718
e 327 755
e 327 864
e 328 660
e 328 470
e 328 873
e 328 563
e 328 595
e 328 479
e 328 985
e 330 459
e 330 821
e 331 469
e 331 874
e 331 343
e 331 809
e 331 984
e 331 464
e 332 727
e 332 840
e 333 366
e 333 451
e 334 679
e 334 587
e 334 925
e 334 384
e 337 999
e 337 720
e 337 674
e 339 769
e 339 680
e 339 690
e 339 498
e 339 513
e 340 883
e 340 921
e 341 984
e 341 459
e 342 840
e 342 845
e 342 736
e 343 391
e 344 568
e 344 887
e 345 440
e 346 896
e 346 913
e 348 448
e 348 890
e 348 487
e 348 1000
e 348 424
e 350 722
e 350 525
e 352 721
e 354 654
e 354 532
e 355 436
e 355 755
e 357 846
e 357 757
e 357 643
e 357 606
e 359 784
e 359 868
e 360 694
e 360 707
e 360 643
e 360 612
e 360 897
e 360 746
e 362 691
e 362 990
e 363 772
e 363 620
e 364 672
e 364 662
e 364 625
e 364 657
e 365 959
e 365 737
e 365 898
e 365 852
e 365 653
e 365 863
e 365 803
e 366 761
e 366 469
e 366 489
e 366 866
e 366 972
e 366 506
e 366 872
e 366 883
e 367 671
e 367 837
e 367 370
e 369 929
e 369 681
e 372 659
e 372 498
e 372 532
e 373 530
e 374 791
e 374 803
e 374 705
e 376 654
e 376 965
e 376 993
e 376 434
e 378 753
e 378 656
e 381 604
e 381 727
e 383 896
e 383 735
e 383 663
e 384 847
e 384 683
e 385 665
e 385 816
e 385 982
e 385 436
e 385 960
e 385 718
e 386 585
e 386 708
e 388 935
e 388 537
e 388 632
e 388 746
e 388 445
e 388 723
e 390 436
e 390 533
e 390 421
e 391 864
e 391 681
e 393 479
e 394 566
e 394 939
e 394 690
e 396 503
e 396 561
e 396 760
e 397 575
e 397 645
e 398 837
e 398 466
e 398 888
e 399 408
e 399 785
e 399 852
e 399 783
e 399 837
e 399 911
e 399 917
e 400 590
e 400 788
e 400 427
e 400 441
e 400 403
e 400 913
e 400 564
e 400 789
e 401 997
e 401 783
e 402 866
e 402 600
e 402 920
e 403 989
e 403 858
e 403 477
e 404 768
e 404 783
e 405 852
e 405 907
e 405 692
e 406 598
e 406 632
e 406 642
e 406 730
e 406 861
e 407 477
e 407 537
e 408 568
e 408 633
e 408 866
e 408 490
e 409 942
e 409 579
e 410 883
e 410 827
e 412 910
e 413 440
e 413 688
e 414 684
e 415 615
e 415 462
e 416 949
e 416 857
e 416 997
e 416 720
e 416 932
e 417 895
e 417 421
e 417 453
e 418 801
e 418 684
e 418 749
e 419 786
e 419 685
e 419 579
e 419 790
e 419 526
e 420 729
e 420 430
e 420 697
e 420 893
e 420 428
e 421 478
e 422 424
e 422 485
e 423 825
e 423 565
e 424 748
e 425 781
e 425 869
e 426 646
e 427 870
e 427 990
e 427 631
e 427 773
e 427 799
e 427 611
e 428 674
e 429 827
e 429 927
e 429 965
e 429 643
e 430 475
e 430 784
e 431 497
e 431 776
e 432 984
e 432 980
e 433 933
e 433 903
e 435 478
e 435 854
e 435 557
e 439 577
e 439 617
e 439 869
e 440 812
e 440 503
e 440 966
e 440 982
e 441 696
e 441 691
e 442 483
e 442 682
e 443 661
e 443 859
e 444 782
e 444 740
e 445 674
e 445 975
e 447 514
e 447 766
e 448 993
e 449 927
e 449 541
e 449 967
e 451 800
e 451 933
e 451 846
e 452 544
e 452 859
e 453 875
e 453 563
e 454 508
e 454 714
e 455 791
e 457 966
e 457 639
e 457 920
e 457 484
e 458 749
e 458 475
e 458 891
e 459 868
e 462 658
e 462 906
e 466 760
e 466 514
e 466 824
e 466 902
e 467 895
e 467 850
e 467 817
e 467 686
e 469 534
e 469 724
e 470 686
e 470 591
e 470 991
e 471 516
e 472 541
e 472 867
e 472 950
e 473 522
e 473 832
e 474 719
e 474 801
e 475 736
e 476 722
e 476 801
e 477 631
e 478 728
e 478 896
e 478 572
e 479 562
e 481 693
e 481 611
e 482 598
e 483 775
e 483 802
e 484 707
e 484 729
e 485 864
e 485 697
e 485 968
e 485 739
e 486 686
e 486 612
e 486 535
e 487 792
e 487 850
e 489 584
e 489 822
e 489 610
e 490 666
e 490 778
e 490 528
e 492 823
e 492 973
e 492 755
e 494 791
e 494 828
e 495 822
e 495 663
e 495 639
e 496 661
e 497 724
e 497 571
e 497 767
e 497 601
e 499 635
e 499 788
e 500 571
e 500 782
e 501 965
e 501 668
e 502 918
e 502 534
e 503 844
e 503 572
e 505 535
e 505 642
e 506 816
e 506 735
e 506 823
e 508 707
e 511 967
e 511 587
e 511 757
e 512 962
e 514 732
e 514 589
e 516 662
e 516 736
e 516 858
e 519 682
e 519 660
e 519 786
e 520 858
e 520 929
e 522 703
e 522 689
e 522 650
e 526 757
e 526 782
e 530 748
e 530 862
e 532 588
e 532 898
e 533 926
e 533 782
e 534 968
e 535 867
e 535 717
e 535 812
e 536 584
e 536 549
e 537 632
e 537 829
e 544 873
e 544 631
e 544 881
e 545 875
e 545 928
e 547 622
e 547 585
e 549 842
e 549 559
e 556 736
e 556 776
e 557 845
e 557 907
e 557 865
e 557 784
e 559 799
e 560 964
e 560 893
e 561 723
e 561 642
e 562 633
e 562 632
e 563 973
e 563 982
e 563 891
e 564 977
e 565 781
e 565 728
e 566 843
e 567 716
e 567 800
e 568 944
e 569 804
e 572 579
e 572 653
e 573 638
e 573 949
e 573 587
e 575 644
e 576 628
e 577 769
e 577 704
e 577 992
e 578 857
e 579 717
e 579 817
e 579 659
e 582 747
e 584 768
e 584 668
e 584 645
e 588 874
e 588 896
e 588 734
e 588 875
e 589 893
e 590 670
e 590 729
e 591 862
e 593 926
e 594 928
e 595 926
e 595 952
e 595 907
e 595 615
e 595 735
e 596 871
e 596 996
e 597 910
e 597 865
e 598 666
e 598 936
e 598 903
e 600 730
e 600 997
e 601 890
e 602 687
e 602 748
e 604 650
e 604 739
e 605 893
e 605 776
e 605 748
e 605 766
e 605 680
e 607 824
e 607 964
e 607 705
e 607 939
e 609 876
e 610 673
e 610 784
e 611 883
e 613 778
e 613 717
e 614 692
e 614 788
e 617 814
e 620 980
e 620 895
e 622 770
e 622 832
e 622 833
e 624 688
e 624 789
e 624 741
e 625 751
e 625 982
e 626 962
e 626 639
e 627 898
e 627 655
e 627 869
e 628 970
e 631 635
e 631 882
e 632 928
e 633 913
e 633 803
e 633 747
e 634 910
e 635 833
e 635 759
e 635 979
e 638 874
e 639 682
e 641 691
e 641 837
e 642 972
e 643 967
e 643 708
e 644 808
e 645 925
e 646 829
e 653 664
e 654 891
e 655 751
e 656 720
e 656 968
e 657 954
e 657 898
e 658 905
e 659 722
e 659 714
e 660 869
e 660 812
e 661 997
e 661 932
e 661 930
e 661 860
e 662 690
e 663 755
e 664 874
e 664 747
e 664 758
e 664 828
e 665 676
e 665 926
e 666 964
e 668 833
e 672 897
e 673 902
e 673 982
e 674 679
e 676 850
e 676 758
e 676 704
e 679 727
e 679 854
e 680 860
e 681 801
e 681 841
e 683 772
e 683 918
e 683 758
e 683 721
e 683 789
e 684 844
e 684 713
e 685 902
e 685 755
e 685 935
e 687 870
e 688 992
e 688 921
e 689 785
e 690 960
e 690 938
e 691 782
e 692 990
e 693 832
e 694 799
e 695 985
e 696 803
e 696 868
e 697 792
e 697 901
e 699 987
e 703 891
e 703 874
e 703 722
e 703 724
e 703 860
e 707 747
e 707 898
e 707 768
e 707 977
e 708 749
e 708 913
e 710 784
e 710 716
e 712 720
e 712 734
e 713 734
e 718 881
e 721 791
e 723 847
e 726 866
e 726 977
e 728 923
e 730 979
e 730 968
e 730 769
e 735 813
e 736 901
e 737 907
e 738 932
e 739 825
e 740 890
e 740 935
e 740 913
e 740 952
e 741 975
e 746 950
e 751 930
e 752 786
e 752 789
e 752 926
e 752 871
e 753 896
e 757 931
e 757 944
e 757 901
e 759 1000
e 760 804
e 761 946
e 767 902
e 767 975
e 768 951
e 772 999
e 773 908
e 775 944
e 776 893
e 778 946
e 778 984
e 782 865
e 783 970
e 784 928
e 785 812
e 788 863
e 789 903
e 791 923
e 800 882
e 801 973
e 802 881
e 804 990
e 804 949
e 805 939
e 805 990
e 809 817
e 809 868
e 814 876
e 821 867
e 821 985
e 821 965
e 822 825
e 824 997
e 825 857
e 827 845
e 829 834
e 832 867
e 833 973
e 834 864
e 834 888
e 841 993
e 842 950
e 843 902
e 844 864
e 844 990
e 845 890
e 847 875
e 850 902
e 852 920
e 854 884
e 854 985
e 863 908
e 870 967
e 872 932
e 872 993
e 876 910
e 880 887
e 880 939
e 882 908
e 888 979
e 888 905
e 893 991
e 897 994
e 901 999
e 903 984
e 905 970
e 911 965
e 912 921
e 923 985
e 931 996
e 935 952
e 939 962
e 954 989
e 964 975
e 966 1000
e 980 984
e 985 988
